c gen_tree
c solvable
p cnf 87 107
-1 2 0
1 3 0
-1 4 0
1 5 0
2 3 1 0
2 6 0
-2 7 0
-2 -8 0
6 -7 -2 0
6 9 0
6 10 0
-9 -10 6 0
9 11 0
11 -12 0
-10 13 0
-13 -14 0
-7 15 0
15 16 0
8 17 0
-8 18 0
17 -18 -8 0
17 -19 0
-18 -20 0
3 -21 0
-3 -22 0
-21 22 3 0
21 -23 0
23 24 0
-24 25 0
25 26 0
25 27 0
26 27 25 0
26 28 0
28 -29 0
29 30 0
29 -31 0
30 31 29 0
30 32 0
-30 33 0
32 -33 -30 0
33 34 0
-34 -35 0
31 -36 0
36 37 0
-37 38 0
-38 39 0
-27 40 0
-27 41 0
40 -41 -27 0
40 42 0
42 -43 0
-42 -44 0
43 44 -42 0
43 -45 0
-45 46 0
44 47 0
44 48 0
47 48 -44 0
-47 -49 0
-49 50 0
-50 51 0
48 -52 0
41 -53 0
53 54 0
22 55 0
22 -56 0
-55 56 -22 0
55 -57 0
-57 58 0
-56 -59 0
59 60 0
60 61 0
61 -62 0
-61 -63 0
-62 63 -61 0
-62 64 0
64 65 0
65 -66 0
63 67 0
-67 -68 0
-68 -69 0
-4 70 0
4 -71 0
-70 -71 4 0
70 72 0
72 73 0
73 -74 0
71 -75 0
-71 -76 0
75 76 -71 0
-75 -77 0
-77 78 0
-78 -79 0
-76 -80 0
80 -81 0
5 -82 0
-5 -83 0
-82 -83 5 0
82 -84 0
-84 -85 0
85 86 0
86 -87 0
52 58 0
-74 -16 0
-81 -69 0
20 52 0
-81 -39 -58 0
